(declare-datatypes (T1 T2 T3 T4 T5)
 ((Recv (mk-recv (match T1) (ep T2) (var T3) (event T4) (nearestwait T5)))))
(declare-datatypes (T1 T2 T3 T4)
((Send (mk-send (match T1) (ep T2) (value T3) (event T4)))))
(define-fun HB ((a Int) (b Int)) Bool
  (if(< a b)
 true
 false))

(define-fun MATCH ((r (Recv Int Int Int Int Int)) (s (Send Int Int Int Int))) Bool
(if(and (= (ep r) (ep s)) (= (var r) (value s))
(= (event s) (nearestwait r)) (= (match r) (event s))
(= (match s) (event r)))
true
false
)
)

(declare-const T2_0 Int)
(declare-const T2_1 Int)
(declare-const T2_2 Int)
(declare-const T2_3 Int)
(declare-const T1_0 Int)
(declare-const T1_1 Int)
(declare-const T1_2 Int)
(declare-const T1_3 Int)
(declare-const T1_4 Int)
(declare-const buffer_1_4 Int)
(declare-const T1_5 Int)
(declare-const T1_6 Int)
(declare-const T1_7 Int)
(declare-const T1_8 Int)
(declare-const T1_9 Int)
(declare-const T0_0 Int)
(declare-const T0_1 Int)
(declare-const T0_2 Int)
(declare-const T0_3 Int)
(declare-const T0_4 Int)
(declare-const buffer_0_4 Int)
(declare-const T0_5 Int)
(declare-const T0_6 Int)
(declare-const T0_7 Int)
(declare-const T0_8 Int)
(declare-const T0_9 Int)
(declare-const T0_10 Int)
(declare-const buffer_0_10 Int)
(declare-const T0_11 Int)
(declare-const T0_12 Int)
(declare-const T0_13 Int)
(declare-const T2_4 Int)
(declare-const buffer_2_4 Int)
(declare-const T2_5 Int)
(declare-const T0_14 Int)
(declare-const T0_15 Int)
(declare-const T0_16 Int)
(declare-const buffer_0_16 Int)
(declare-const T0_17 Int)
(declare-const T1_10 Int)
(declare-const buffer_1_10 Int)
(declare-const T1_11 Int)
(declare-const T1_12 Int)
(declare-const T1_13 Int)
(declare-const T1_14 Int)
(declare-const T1_15 Int)
(declare-const T1_16 Int)
(declare-const buffer_1_16 Int)
(declare-const T1_17 Int)
(declare-const T1_18 Int)
(declare-const buffer_1_18 Int)
(declare-const T1_19 Int)
(declare-const T1_20 Int)
(declare-const buffer_1_20 Int)
(declare-const T1_21 Int)
(declare-const T2_6 Int)
(declare-const T2_7 Int)
(declare-const T2_8 Int)
(declare-const T2_9 Int)
(declare-const T2_10 Int)
(declare-const buffer_2_10 Int)
(declare-const T2_11 Int)
(declare-const T2_12 Int)
(declare-const T2_13 Int)
(declare-const T2_14 Int)
(declare-const T2_15 Int)
(declare-const T2_16 Int)
(declare-const buffer_2_16 Int)
(declare-const T2_17 Int)
(declare-const T2_18 Int)
(declare-const T2_19 Int)
(declare-const T2_20 Int)
(declare-const T2_21 Int)
(declare-const T2_22 Int)
(declare-const buffer_2_22 Int)
(declare-const T2_23 Int)
(declare-const T2_24 Int)
(declare-const buffer_2_24 Int)
(declare-const T2_25 Int)
(declare-const T0_18 Int)
(declare-const buffer_0_18 Int)
(declare-const T0_19 Int)
(declare-const T0_20 Int)
(declare-const buffer_0_20 Int)
(declare-const T0_21 Int)

(declare-const sendT2_0 (Send Int Int Int Int))
(assert (and (= (ep sendT2_0) 1) (= (event sendT2_0) T2_0) (= (value sendT2_0) 2)))
(declare-const sendT2_2 (Send Int Int Int Int))
(assert (and (= (ep sendT2_2) 0) (= (event sendT2_2) T2_2) (= (value sendT2_2) 2)))
(declare-const sendT1_0 (Send Int Int Int Int))
(assert (and (= (ep sendT1_0) 0) (= (event sendT1_0) T1_0) (= (value sendT1_0) 1)))
(declare-const sendT1_2 (Send Int Int Int Int))
(assert (and (= (ep sendT1_2) 2) (= (event sendT1_2) T1_2) (= (value sendT1_2) 1)))
(declare-const recvT1_4 (Recv Int Int Int Int Int))
(assert (and (= (ep recvT1_4) 1) (= (event recvT1_4) T1_4) (= (var recvT1_4) buffer_1_4)))
(assert (= (nearestwait recvT1_4) T1_5))
(declare-const sendT1_6 (Send Int Int Int Int))
(assert (and (= (ep sendT1_6) 0) (= (event sendT1_6) T1_6) (= (value sendT1_6) 1)))
(declare-const sendT1_8 (Send Int Int Int Int))
(assert (and (= (ep sendT1_8) 2) (= (event sendT1_8) T1_8) (= (value sendT1_8) 1)))
(declare-const sendT0_0 (Send Int Int Int Int))
(assert (and (= (ep sendT0_0) 2) (= (event sendT0_0) T0_0) (= (value sendT0_0) 0)))
(declare-const sendT0_2 (Send Int Int Int Int))
(assert (and (= (ep sendT0_2) 1) (= (event sendT0_2) T0_2) (= (value sendT0_2) 0)))
(declare-const recvT0_4 (Recv Int Int Int Int Int))
(assert (and (= (ep recvT0_4) 0) (= (event recvT0_4) T0_4) (= (var recvT0_4) buffer_0_4)))
(assert (= (nearestwait recvT0_4) T0_5))
(declare-const sendT0_6 (Send Int Int Int Int))
(assert (and (= (ep sendT0_6) 2) (= (event sendT0_6) T0_6) (= (value sendT0_6) 0)))
(declare-const sendT0_8 (Send Int Int Int Int))
(assert (and (= (ep sendT0_8) 1) (= (event sendT0_8) T0_8) (= (value sendT0_8) 0)))
(declare-const recvT0_10 (Recv Int Int Int Int Int))
(assert (and (= (ep recvT0_10) 0) (= (event recvT0_10) T0_10) (= (var recvT0_10) buffer_0_10)))
(assert (= (nearestwait recvT0_10) T0_11))
(declare-const sendT0_12 (Send Int Int Int Int))
(assert (and (= (ep sendT0_12) 2) (= (event sendT0_12) T0_12) (= (value sendT0_12) 0)))
(declare-const recvT2_4 (Recv Int Int Int Int Int))
(assert (and (= (ep recvT2_4) 2) (= (event recvT2_4) T2_4) (= (var recvT2_4) buffer_2_4)))
(assert (= (nearestwait recvT2_4) T2_5))
(declare-const sendT0_14 (Send Int Int Int Int))
(assert (and (= (ep sendT0_14) 1) (= (event sendT0_14) T0_14) (= (value sendT0_14) 0)))
(declare-const recvT0_16 (Recv Int Int Int Int Int))
(assert (and (= (ep recvT0_16) 0) (= (event recvT0_16) T0_16) (= (var recvT0_16) buffer_0_16)))
(assert (= (nearestwait recvT0_16) T0_17))
(declare-const recvT1_10 (Recv Int Int Int Int Int))
(assert (and (= (ep recvT1_10) 1) (= (event recvT1_10) T1_10) (= (var recvT1_10) buffer_1_10)))
(assert (= (nearestwait recvT1_10) T1_11))
(declare-const sendT1_12 (Send Int Int Int Int))
(assert (and (= (ep sendT1_12) 0) (= (event sendT1_12) T1_12) (= (value sendT1_12) 1)))
(declare-const sendT1_14 (Send Int Int Int Int))
(assert (and (= (ep sendT1_14) 2) (= (event sendT1_14) T1_14) (= (value sendT1_14) 1)))
(declare-const recvT1_16 (Recv Int Int Int Int Int))
(assert (and (= (ep recvT1_16) 1) (= (event recvT1_16) T1_16) (= (var recvT1_16) buffer_1_16)))
(assert (= (nearestwait recvT1_16) T1_17))
(declare-const recvT1_18 (Recv Int Int Int Int Int))
(assert (and (= (ep recvT1_18) 1) (= (event recvT1_18) T1_18) (= (var recvT1_18) buffer_1_18)))
(assert (= (nearestwait recvT1_18) T1_19))
(declare-const recvT1_20 (Recv Int Int Int Int Int))
(assert (and (= (ep recvT1_20) 1) (= (event recvT1_20) T1_20) (= (var recvT1_20) buffer_1_20)))
(assert (= (nearestwait recvT1_20) T1_21))
(declare-const sendT2_6 (Send Int Int Int Int))
(assert (and (= (ep sendT2_6) 1) (= (event sendT2_6) T2_6) (= (value sendT2_6) 2)))
(declare-const sendT2_8 (Send Int Int Int Int))
(assert (and (= (ep sendT2_8) 0) (= (event sendT2_8) T2_8) (= (value sendT2_8) 2)))
(declare-const recvT2_10 (Recv Int Int Int Int Int))
(assert (and (= (ep recvT2_10) 2) (= (event recvT2_10) T2_10) (= (var recvT2_10) buffer_2_10)))
(assert (= (nearestwait recvT2_10) T2_11))
(declare-const sendT2_12 (Send Int Int Int Int))
(assert (and (= (ep sendT2_12) 1) (= (event sendT2_12) T2_12) (= (value sendT2_12) 2)))
(declare-const sendT2_14 (Send Int Int Int Int))
(assert (and (= (ep sendT2_14) 0) (= (event sendT2_14) T2_14) (= (value sendT2_14) 2)))
(declare-const recvT2_16 (Recv Int Int Int Int Int))
(assert (and (= (ep recvT2_16) 2) (= (event recvT2_16) T2_16) (= (var recvT2_16) buffer_2_16)))
(assert (= (nearestwait recvT2_16) T2_17))
(declare-const sendT2_18 (Send Int Int Int Int))
(assert (and (= (ep sendT2_18) 1) (= (event sendT2_18) T2_18) (= (value sendT2_18) 2)))
(declare-const sendT2_20 (Send Int Int Int Int))
(assert (and (= (ep sendT2_20) 0) (= (event sendT2_20) T2_20) (= (value sendT2_20) 2)))
(declare-const recvT2_22 (Recv Int Int Int Int Int))
(assert (and (= (ep recvT2_22) 2) (= (event recvT2_22) T2_22) (= (var recvT2_22) buffer_2_22)))
(assert (= (nearestwait recvT2_22) T2_23))
(declare-const recvT2_24 (Recv Int Int Int Int Int))
(assert (and (= (ep recvT2_24) 2) (= (event recvT2_24) T2_24) (= (var recvT2_24) buffer_2_24)))
(assert (= (nearestwait recvT2_24) T2_25))
(declare-const recvT0_18 (Recv Int Int Int Int Int))
(assert (and (= (ep recvT0_18) 0) (= (event recvT0_18) T0_18) (= (var recvT0_18) buffer_0_18)))
(assert (= (nearestwait recvT0_18) T0_19))
(declare-const recvT0_20 (Recv Int Int Int Int Int))
(assert (and (= (ep recvT0_20) 0) (= (event recvT0_20) T0_20) (= (var recvT0_20) buffer_0_20)))
(assert (= (nearestwait recvT0_20) T0_21))

(assert (and
(HB T1_4 T1_5) (HB T1_0 T1_6) (HB T1_2 T1_8) (HB T0_4 T0_5) (HB T0_0 T0_6) (HB T0_2 T0_8) (HB T0_4 T0_10) (HB T0_10 T0_11) (HB T0_6 T0_12) (HB T2_4 T2_5) (HB T0_8 T0_14) (HB T0_10 T0_16) (HB T0_16 T0_17) (HB T1_4 T1_10) (HB T1_10 T1_11) (HB T1_6 T1_12) (HB T1_8 T1_14) (HB T1_10 T1_16) (HB T1_16 T1_17) (HB T1_16 T1_18) (HB T1_18 T1_19) (HB T1_18 T1_20) (HB T1_20 T1_21) (HB T2_0 T2_6) (HB T2_2 T2_8) (HB T2_4 T2_10) (HB T2_10 T2_11) (HB T2_6 T2_12) (HB T2_8 T2_14) (HB T2_10 T2_16) (HB T2_16 T2_17) (HB T2_12 T2_18) (HB T2_14 T2_20) (HB T2_16 T2_22) (HB T2_22 T2_23) (HB T2_22 T2_24) (HB T2_24 T2_25) (HB T0_16 T0_18) (HB T0_18 T0_19) (HB T0_18 T0_20) (HB T0_20 T0_21) ))


(assert (and
(or (MATCH recvT2_4 sendT0_0) (MATCH recvT2_4 sendT1_2) )
(or (MATCH recvT1_20 sendT0_2) (MATCH recvT1_20 sendT0_8) (MATCH recvT1_20 sendT0_14) (MATCH recvT1_20 sendT2_6) (MATCH recvT1_20 sendT2_12) (MATCH recvT1_20 sendT2_18) )
(or (MATCH recvT1_18 sendT0_2) (MATCH recvT1_18 sendT0_8) (MATCH recvT1_18 sendT0_14) (MATCH recvT1_18 sendT2_0) (MATCH recvT1_18 sendT2_6) (MATCH recvT1_18 sendT2_12) (MATCH recvT1_18 sendT2_18) )
(or (MATCH recvT2_10 sendT0_0) (MATCH recvT2_10 sendT0_6) (MATCH recvT2_10 sendT1_2) (MATCH recvT2_10 sendT1_8) )
(or (MATCH recvT1_16 sendT0_2) (MATCH recvT1_16 sendT0_8) (MATCH recvT1_16 sendT0_14) (MATCH recvT1_16 sendT2_0) (MATCH recvT1_16 sendT2_6) (MATCH recvT1_16 sendT2_12) )
(or (MATCH recvT0_18 sendT1_0) (MATCH recvT0_18 sendT1_6) (MATCH recvT0_18 sendT1_12) (MATCH recvT0_18 sendT2_2) (MATCH recvT0_18 sendT2_8) (MATCH recvT0_18 sendT2_14) (MATCH recvT0_18 sendT2_20) )
(or (MATCH recvT0_20 sendT1_0) (MATCH recvT0_20 sendT1_6) (MATCH recvT0_20 sendT1_12) (MATCH recvT0_20 sendT2_8) (MATCH recvT0_20 sendT2_14) (MATCH recvT0_20 sendT2_20) )
(or (MATCH recvT1_10 sendT0_2) (MATCH recvT1_10 sendT0_8) (MATCH recvT1_10 sendT2_0) (MATCH recvT1_10 sendT2_6) )
(or (MATCH recvT0_16 sendT1_0) (MATCH recvT0_16 sendT1_6) (MATCH recvT0_16 sendT1_12) (MATCH recvT0_16 sendT2_2) (MATCH recvT0_16 sendT2_8) (MATCH recvT0_16 sendT2_14) )
(or (MATCH recvT0_4 sendT1_0) (MATCH recvT0_4 sendT2_2) )
(or (MATCH recvT2_24 sendT0_6) (MATCH recvT2_24 sendT0_12) (MATCH recvT2_24 sendT1_8) (MATCH recvT2_24 sendT1_14) )
(or (MATCH recvT0_10 sendT1_0) (MATCH recvT0_10 sendT1_6) (MATCH recvT0_10 sendT2_2) (MATCH recvT0_10 sendT2_8) )
(or (MATCH recvT2_22 sendT0_0) (MATCH recvT2_22 sendT0_6) (MATCH recvT2_22 sendT0_12) (MATCH recvT2_22 sendT1_2) (MATCH recvT2_22 sendT1_8) (MATCH recvT2_22 sendT1_14) )
(or (MATCH recvT1_4 sendT0_2) (MATCH recvT1_4 sendT2_0) )
(or (MATCH recvT2_16 sendT0_0) (MATCH recvT2_16 sendT0_6) (MATCH recvT2_16 sendT0_12) (MATCH recvT2_16 sendT1_2) (MATCH recvT2_16 sendT1_8) (MATCH recvT2_16 sendT1_14) )
))


(check-sat)
